(set-logic QF_NRA)
(set-info :source |Benchmarks generated from hycomp (https://es-static.fbk.eu/tools/hycomp/). BMC instances of non-linear hybrid automata taken from: Alessandro Cimatti, Sergio Mover, Stefano Tonetta, A quantifier-free SMT encoding of non-linear hybrid automata, FMCAD 2012 and Alessandro Cimatti, Sergio Mover, Stefano Tonetta, Quantier-free encoding of invariants for Hybrid Systems, Formal Methods in System Design. This instance solves a BMC problem of depth 2 and uses the quantifier free encoding encoding. Contacts: Sergio Mover (mover@fbk.eu), Stefano Tonetta (tonettas@fbk.eu), Alessandro Cimatti (cimatti@fbk.eu).|)
(set-info :smt-lib-version 2.0)
(set-info :category "industrial")
(set-info :status unsat)
;; MathSAT API call trace
;; generated on Mon Mar 19 10:47:25 2012
(declare-fun b.y__AT1 () Real)
(declare-fun b.EVENT.0__AT0 () Bool)
(declare-fun b.bool_atom__AT2 () Bool)
(declare-fun b.speed_x__AT2 () Real)
(declare-fun b.speed_y__AT2 () Real)
(declare-fun b.speed_y__AT0 () Real)
(declare-fun b.event_is_timed__AT0 () Bool)
(declare-fun b.counter.3__AT0 () Bool)
(declare-fun b.speed_x__AT1 () Real)
(declare-fun b.time__AT1 () Real)
(declare-fun b.x__AT1 () Real)
(declare-fun b.event_is_timed__AT1 () Bool)
(declare-fun b.counter.0__AT1 () Bool)
(declare-fun b.EVENT.1__AT0 () Bool)
(declare-fun b.event_is_timed__AT2 () Bool)
(declare-fun b.speed_loss__AT0 () Real)
(declare-fun b.counter.1__AT1 () Bool)
(declare-fun b.speed_x__AT0 () Real)
(declare-fun b.counter.2__AT1 () Bool)
(declare-fun b.time__AT0 () Real)
(declare-fun b.counter.2__AT0 () Bool)
(declare-fun b.counter.3__AT1 () Bool)
(declare-fun b.bool_atom__AT1 () Bool)
(declare-fun b.time__AT2 () Real)
(declare-fun b.y__AT2 () Real)
(declare-fun b.x__AT0 () Real)
(declare-fun b.delta__AT2 () Real)
(declare-fun b.counter.0__AT2 () Bool)
(declare-fun b.speed_y__AT1 () Real)
(declare-fun b.x__AT2 () Real)
(declare-fun b.EVENT.0__AT2 () Bool)
(declare-fun b.delta__AT1 () Real)
(declare-fun b.bool_atom__AT0 () Bool)
(declare-fun b.y__AT0 () Real)
(declare-fun b.counter.1__AT2 () Bool)
(declare-fun b.EVENT.1__AT1 () Bool)
(declare-fun b.EVENT.1__AT2 () Bool)
(declare-fun b.EVENT.0__AT1 () Bool)
(declare-fun b.counter.0__AT0 () Bool)
(declare-fun b.counter.2__AT2 () Bool)
(declare-fun b.delta__AT0 () Real)
(declare-fun b.counter.1__AT0 () Bool)
(declare-fun b.counter.3__AT2 () Bool)
(assert (let ((.def_792 (* (- (/ 49 10)) b.speed_y__AT2)))
(let ((.def_823 (* 3.0 .def_792)))
(let ((.def_891 (* (- 1.0) .def_823)))
(let ((.def_912 (* 2.0 .def_891)))
(let ((.def_921 (* (- 1.0) .def_912)))
(let ((.def_922 (* b.delta__AT2 .def_921)))
(let ((.def_923 (* (- 50.0) .def_922)))
(let ((.def_787 (* b.delta__AT2 b.delta__AT2)))
(let ((.def_850 (* (- 7203.0) .def_787)))
(let ((.def_924 (+ .def_850 .def_923)))
(let ((.def_670 (* b.speed_y__AT2 b.speed_y__AT2)))
(let ((.def_852 (* (- 50.0) .def_670)))
(let ((.def_925 (+ .def_852 .def_924)))
(let ((.def_854 (* 490.0 b.y__AT2)))
(let ((.def_926 (+ .def_854 .def_925)))
(let ((.def_927 (<= .def_926 0.0 )))
(let ((.def_860 (* (- 5.0) .def_670)))
(let ((.def_861 (* 49.0 b.y__AT2)))
(let ((.def_863 (+ .def_861 .def_860)))
(let ((.def_864 (<= .def_863 0.0 )))
(let ((.def_928 (and .def_864 .def_927)))
(let ((.def_867 (* (- 49.0) b.delta__AT2)))
(let ((.def_868 (* 5.0 b.speed_y__AT2)))
(let ((.def_870 (+ .def_868 .def_867)))
(let ((.def_874 (<= 0.0 .def_870)))
(let ((.def_873 (<= 0.0 b.speed_y__AT2)))
(let ((.def_875 (and .def_873 .def_874)))
(let ((.def_871 (<= .def_870 0.0 )))
(let ((.def_866 (<= b.speed_y__AT2 0.0 )))
(let ((.def_872 (and .def_866 .def_871)))
(let ((.def_876 (or .def_872 .def_875)))
(let ((.def_929 (and .def_876 .def_928)))
(let ((.def_913 (* b.delta__AT2 .def_912)))
(let ((.def_914 (* 50.0 .def_913)))
(let ((.def_915 (+ .def_850 .def_914)))
(let ((.def_916 (+ .def_852 .def_915)))
(let ((.def_917 (+ .def_854 .def_916)))
(let ((.def_918 (<= 0.0 .def_917)))
(let ((.def_885 (<= 0.0 .def_863)))
(let ((.def_919 (and .def_885 .def_918)))
(let ((.def_920 (and .def_876 .def_919)))
(let ((.def_930 (or .def_920 .def_929)))
(let ((.def_799 (* (- (/ 49 10)) b.y__AT2)))
(let ((.def_830 (* 2.0 .def_799)))
(let ((.def_899 (* (- 1.0) .def_830)))
(let ((.def_900 (* b.delta__AT2 .def_899)))
(let ((.def_901 (* (- 50.0) .def_900)))
(let ((.def_826 (* 2.0 .def_670)))
(let ((.def_895 (* (- 1.0) .def_826)))
(let ((.def_896 (* b.delta__AT2 .def_895)))
(let ((.def_897 (* (- 25.0) .def_896)))
(let ((.def_905 (+ .def_897 .def_901)))
(let ((.def_892 (* .def_787 .def_891)))
(let ((.def_893 (* (- 50.0) .def_892)))
(let ((.def_906 (+ .def_893 .def_905)))
(let ((.def_803 (* b.y__AT2 b.speed_y__AT2)))
(let ((.def_836 (* 50.0 .def_803)))
(let ((.def_907 (+ .def_836 .def_906)))
(let ((.def_788 (* b.delta__AT2 .def_787)))
(let ((.def_834 (* 2401.0 .def_788)))
(let ((.def_908 (+ .def_834 .def_907)))
(let ((.def_838 (* 25.0 b.speed_x__AT2)))
(let ((.def_909 (+ .def_838 .def_908)))
(let ((.def_910 (<= .def_909 0.0 )))
(let ((.def_820 (* 2.0 .def_803)))
(let ((.def_821 (+ b.speed_x__AT2 .def_820)))
(let ((.def_890 (<= .def_821 0.0 )))
(let ((.def_911 (and .def_890 .def_910)))
(let ((.def_931 (and .def_911 .def_930)))
(let ((.def_847 (* 2.0 .def_823)))
(let ((.def_878 (* (- 1.0) .def_847)))
(let ((.def_879 (* b.delta__AT2 .def_878)))
(let ((.def_880 (* 50.0 .def_879)))
(let ((.def_881 (+ .def_850 .def_880)))
(let ((.def_882 (+ .def_852 .def_881)))
(let ((.def_883 (+ .def_854 .def_882)))
(let ((.def_884 (<= 0.0 .def_883)))
(let ((.def_886 (and .def_884 .def_885)))
(let ((.def_887 (and .def_876 .def_886)))
(let ((.def_848 (* b.delta__AT2 .def_847)))
(let ((.def_849 (* (- 50.0) .def_848)))
(let ((.def_856 (+ .def_850 .def_849)))
(let ((.def_857 (+ .def_852 .def_856)))
(let ((.def_858 (+ .def_854 .def_857)))
(let ((.def_859 (<= .def_858 0.0 )))
(let ((.def_865 (and .def_859 .def_864)))
(let ((.def_877 (and .def_865 .def_876)))
(let ((.def_888 (or .def_877 .def_887)))
(let ((.def_831 (* b.delta__AT2 .def_830)))
(let ((.def_832 (* 50.0 .def_831)))
(let ((.def_827 (* b.delta__AT2 .def_826)))
(let ((.def_828 (* 25.0 .def_827)))
(let ((.def_840 (+ .def_828 .def_832)))
(let ((.def_824 (* .def_787 .def_823)))
(let ((.def_825 (* 50.0 .def_824)))
(let ((.def_841 (+ .def_825 .def_840)))
(let ((.def_842 (+ .def_836 .def_841)))
(let ((.def_843 (+ .def_834 .def_842)))
(let ((.def_844 (+ .def_838 .def_843)))
(let ((.def_845 (<= 0.0 .def_844)))
(let ((.def_822 (<= 0.0 .def_821)))
(let ((.def_846 (and .def_822 .def_845)))
(let ((.def_889 (and .def_846 .def_888)))
(let ((.def_932 (or .def_889 .def_931)))
(let ((.def_804 (* b.delta__AT2 .def_803)))
(let ((.def_805 (* 200.0 .def_804)))
(let ((.def_800 (* .def_787 .def_799)))
(let ((.def_801 (* 200.0 .def_800)))
(let ((.def_811 (+ .def_801 .def_805)))
(let ((.def_796 (* .def_670 .def_787)))
(let ((.def_797 (* 100.0 .def_796)))
(let ((.def_812 (+ .def_797 .def_811)))
(let ((.def_793 (* .def_788 .def_792)))
(let ((.def_794 (* 200.0 .def_793)))
(let ((.def_813 (+ .def_794 .def_812)))
(let ((.def_789 (* b.delta__AT2 .def_788)))
(let ((.def_790 (* 2401.0 .def_789)))
(let ((.def_814 (+ .def_790 .def_813)))
(let ((.def_785 (* b.speed_x__AT2 b.delta__AT2)))
(let ((.def_786 (* 100.0 .def_785)))
(let ((.def_815 (+ .def_786 .def_814)))
(let ((.def_774 (* b.y__AT2 b.y__AT2)))
(let ((.def_807 (* 100.0 .def_774)))
(let ((.def_816 (+ .def_807 .def_815)))
(let ((.def_809 (* 100.0 b.x__AT2)))
(let ((.def_817 (+ .def_809 .def_816)))
(let ((.def_818 (<= 0.0 .def_817)))
(let ((.def_775 (+ b.x__AT2 .def_774)))
(let ((.def_776 (<= 0.0 .def_775)))
(let ((.def_819 (and .def_776 .def_818)))
(let ((.def_933 (and .def_819 .def_932)))
(let ((.def_66 (<= b.speed_loss__AT0 (/ 1 2))))
(let ((.def_63 (<= (/ 1 10) b.speed_loss__AT0)))
(let ((.def_67 (and .def_63 .def_66)))
(let ((.def_934 (and .def_67 .def_933)))
(let ((.def_348 (not b.counter.0__AT1)))
(let ((.def_338 (not b.counter.1__AT1)))
(let ((.def_780 (and .def_338 .def_348)))
(let ((.def_343 (not b.counter.2__AT1)))
(let ((.def_781 (and .def_343 .def_780)))
(let ((.def_777 (and .def_67 .def_776)))
(let ((.def_771 (not b.EVENT.0__AT2)))
(let ((.def_769 (not b.EVENT.1__AT2)))
(let ((.def_772 (or .def_769 .def_771)))
(let ((.def_6 (not b.counter.0__AT2)))
(let ((.def_4 (not b.counter.1__AT2)))
(let ((.def_762 (or .def_4 .def_6)))
(let ((.def_766 (or b.counter.3__AT2 .def_762)))
(let ((.def_763 (or b.counter.2__AT2 .def_762)))
(let ((.def_9 (not b.counter.2__AT2)))
(let ((.def_761 (or .def_6 .def_9)))
(let ((.def_764 (and .def_761 .def_763)))
(let ((.def_692 (not b.counter.3__AT2)))
(let ((.def_765 (or .def_692 .def_764)))
(let ((.def_767 (and .def_765 .def_766)))
(let ((.def_773 (and .def_767 .def_772)))
(let ((.def_778 (and .def_773 .def_777)))
(let ((.def_756 (<= 0.0 b.delta__AT1)))
(let ((.def_437 (not b.EVENT.0__AT1)))
(let ((.def_435 (not b.EVENT.1__AT1)))
(let ((.def_600 (and .def_435 .def_437)))
(let ((.def_602 (not .def_600)))
(let ((.def_757 (or .def_602 .def_756)))
(let ((.def_758 (or b.EVENT.1__AT1 .def_757)))
(let ((.def_641 (= b.bool_atom__AT1 b.bool_atom__AT2)))
(let ((.def_637 (= b.counter.0__AT2 b.counter.0__AT1)))
(let ((.def_635 (= b.counter.1__AT2 b.counter.1__AT1)))
(let ((.def_633 (= b.counter.2__AT2 b.counter.2__AT1)))
(let ((.def_632 (= b.counter.3__AT1 b.counter.3__AT2)))
(let ((.def_634 (and .def_632 .def_633)))
(let ((.def_636 (and .def_634 .def_635)))
(let ((.def_638 (and .def_636 .def_637)))
(let ((.def_752 (and .def_638 .def_641)))
(let ((.def_753 (or .def_602 .def_752)))
(let ((.def_754 (or b.EVENT.1__AT1 .def_753)))
(let ((.def_735 (* b.speed_y__AT1 b.delta__AT1)))
(let ((.def_736 (* 10.0 .def_735)))
(let ((.def_737 (* (- 10.0) b.y__AT2)))
(let ((.def_743 (+ .def_737 .def_736)))
(let ((.def_451 (* b.delta__AT1 b.delta__AT1)))
(let ((.def_739 (* (- 49.0) .def_451)))
(let ((.def_744 (+ .def_739 .def_743)))
(let ((.def_741 (* 10.0 b.y__AT1)))
(let ((.def_745 (+ .def_741 .def_744)))
(let ((.def_746 (= .def_745 0.0 )))
(let ((.def_730 (* (- 5.0) b.speed_y__AT2)))
(let ((.def_531 (* (- 49.0) b.delta__AT1)))
(let ((.def_731 (+ .def_531 .def_730)))
(let ((.def_532 (* 5.0 b.speed_y__AT1)))
(let ((.def_732 (+ .def_532 .def_731)))
(let ((.def_733 (= .def_732 0.0 )))
(let ((.def_726 (* (- 1.0) b.x__AT2)))
(let ((.def_449 (* b.speed_x__AT1 b.delta__AT1)))
(let ((.def_727 (+ .def_449 .def_726)))
(let ((.def_728 (+ b.x__AT1 .def_727)))
(let ((.def_729 (= .def_728 0.0 )))
(let ((.def_734 (and .def_729 .def_733)))
(let ((.def_747 (and .def_734 .def_746)))
(let ((.def_626 (= b.speed_x__AT1 b.speed_x__AT2)))
(let ((.def_748 (and .def_626 .def_747)))
(let ((.def_749 (or .def_602 .def_748)))
(let ((.def_623 (= b.y__AT1 b.y__AT2)))
(let ((.def_620 (= b.x__AT1 b.x__AT2)))
(let ((.def_720 (and .def_620 .def_623)))
(let ((.def_721 (and .def_626 .def_720)))
(let ((.def_629 (= b.speed_y__AT1 b.speed_y__AT2)))
(let ((.def_722 (and .def_629 .def_721)))
(let ((.def_717 (= b.delta__AT1 0.0 )))
(let ((.def_718 (and .def_600 .def_717)))
(let ((.def_719 (not .def_718)))
(let ((.def_723 (or .def_719 .def_722)))
(let ((.def_724 (or b.EVENT.1__AT1 .def_723)))
(let ((.def_709 (and .def_626 .def_629)))
(let ((.def_710 (and .def_638 .def_709)))
(let ((.def_711 (or b.bool_atom__AT1 .def_710)))
(let ((.def_684 (or .def_6 b.counter.0__AT1)))
(let ((.def_683 (or b.counter.0__AT2 .def_348)))
(let ((.def_685 (and .def_683 .def_684)))
(let ((.def_686 (and .def_4 .def_685)))
(let ((.def_687 (or b.counter.1__AT1 .def_686)))
(let ((.def_682 (or b.counter.1__AT2 .def_338)))
(let ((.def_688 (and .def_682 .def_687)))
(let ((.def_700 (and .def_9 .def_688)))
(let ((.def_701 (or b.counter.2__AT1 .def_700)))
(let ((.def_695 (and .def_4 .def_348)))
(let ((.def_696 (or b.counter.1__AT1 .def_695)))
(let ((.def_697 (and .def_682 .def_696)))
(let ((.def_698 (and b.counter.2__AT2 .def_697)))
(let ((.def_699 (or .def_343 .def_698)))
(let ((.def_702 (and .def_699 .def_701)))
(let ((.def_703 (and b.counter.3__AT2 .def_702)))
(let ((.def_704 (or b.counter.3__AT1 .def_703)))
(let ((.def_689 (and b.counter.2__AT2 .def_688)))
(let ((.def_690 (or b.counter.2__AT1 .def_689)))
(let ((.def_678 (or b.counter.1__AT2 b.counter.1__AT1)))
(let ((.def_676 (and .def_4 b.counter.0__AT2)))
(let ((.def_677 (or .def_338 .def_676)))
(let ((.def_679 (and .def_677 .def_678)))
(let ((.def_680 (and .def_9 .def_679)))
(let ((.def_681 (or .def_343 .def_680)))
(let ((.def_691 (and .def_681 .def_690)))
(let ((.def_693 (and .def_691 .def_692)))
(let ((.def_357 (not b.counter.3__AT1)))
(let ((.def_694 (or .def_357 .def_693)))
(let ((.def_705 (and .def_694 .def_704)))
(let ((.def_332 (* b.speed_y__AT1 b.speed_y__AT1)))
(let ((.def_325 (* b.speed_x__AT1 b.speed_x__AT1)))
(let ((.def_666 (+ .def_325 .def_332)))
(let ((.def_313 (* (- 1.0) b.speed_loss__AT0)))
(let ((.def_314 (+ 1.0 .def_313)))
(let ((.def_326 (* .def_314 .def_314)))
(let ((.def_667 (* .def_326 .def_666)))
(let ((.def_668 (* (- 1.0) .def_667)))
(let ((.def_672 (+ .def_668 .def_670)))
(let ((.def_665 (* b.speed_x__AT2 b.speed_x__AT2)))
(let ((.def_673 (+ .def_665 .def_672)))
(let ((.def_674 (= .def_673 0.0 )))
(let ((.def_311 (* 2.0 b.y__AT1)))
(let ((.def_657 (* .def_311 .def_314)))
(let ((.def_658 (* b.speed_y__AT1 .def_657)))
(let ((.def_655 (* b.speed_x__AT1 .def_314)))
(let ((.def_661 (+ .def_655 .def_658)))
(let ((.def_653 (* 2.0 b.y__AT2)))
(let ((.def_654 (* b.speed_y__AT2 .def_653)))
(let ((.def_662 (+ .def_654 .def_661)))
(let ((.def_663 (+ b.speed_x__AT2 .def_662)))
(let ((.def_664 (= .def_663 0.0 )))
(let ((.def_675 (and .def_664 .def_674)))
(let ((.def_706 (and .def_675 .def_705)))
(let ((.def_652 (not b.bool_atom__AT1)))
(let ((.def_707 (or .def_652 .def_706)))
(let ((.def_312 (* b.speed_y__AT1 .def_311)))
(let ((.def_647 (+ b.speed_x__AT1 .def_312)))
(let ((.def_648 (<= 0.0 .def_647)))
(let ((.def_649 (not .def_648)))
(let ((.def_440 (* b.y__AT1 b.y__AT1)))
(let ((.def_441 (+ b.x__AT1 .def_440)))
(let ((.def_646 (= .def_441 0.0 )))
(let ((.def_650 (and .def_646 .def_649)))
(let ((.def_651 (= b.bool_atom__AT1 .def_650)))
(let ((.def_708 (and .def_651 .def_707)))
(let ((.def_712 (and .def_708 .def_711)))
(let ((.def_713 (and .def_620 .def_712)))
(let ((.def_714 (and .def_623 .def_713)))
(let ((.def_715 (or .def_600 .def_714)))
(let ((.def_716 (or b.EVENT.1__AT1 .def_715)))
(let ((.def_725 (and .def_716 .def_724)))
(let ((.def_750 (and .def_725 .def_749)))
(let ((.def_607 (= b.time__AT1 b.time__AT2)))
(let ((.def_621 (and .def_607 .def_620)))
(let ((.def_624 (and .def_621 .def_623)))
(let ((.def_627 (and .def_624 .def_626)))
(let ((.def_630 (and .def_627 .def_629)))
(let ((.def_639 (and .def_630 .def_638)))
(let ((.def_642 (and .def_639 .def_641)))
(let ((.def_643 (or .def_435 .def_642)))
(let ((.def_610 (* (- 1.0) b.time__AT2)))
(let ((.def_613 (+ b.delta__AT1 .def_610)))
(let ((.def_614 (+ b.time__AT1 .def_613)))
(let ((.def_615 (= .def_614 0.0 )))
(let ((.def_616 (or .def_602 .def_615)))
(let ((.def_617 (or b.EVENT.1__AT1 .def_616)))
(let ((.def_608 (or .def_600 .def_607)))
(let ((.def_609 (or b.EVENT.1__AT1 .def_608)))
(let ((.def_618 (and .def_609 .def_617)))
(let ((.def_644 (and .def_618 .def_643)))
(let ((.def_604 (= .def_602 b.event_is_timed__AT2)))
(let ((.def_601 (= b.event_is_timed__AT1 .def_600)))
(let ((.def_605 (and .def_601 .def_604)))
(let ((.def_645 (and .def_605 .def_644)))
(let ((.def_751 (and .def_645 .def_750)))
(let ((.def_755 (and .def_751 .def_754)))
(let ((.def_759 (and .def_755 .def_758)))
(let ((.def_760 (and .def_435 .def_759)))
(let ((.def_779 (and .def_760 .def_778)))
(let ((.def_782 (and .def_779 .def_781)))
(let ((.def_456 (* (- (/ 49 10)) b.speed_y__AT1)))
(let ((.def_487 (* 3.0 .def_456)))
(let ((.def_555 (* (- 1.0) .def_487)))
(let ((.def_576 (* 2.0 .def_555)))
(let ((.def_585 (* (- 1.0) .def_576)))
(let ((.def_586 (* b.delta__AT1 .def_585)))
(let ((.def_587 (* (- 50.0) .def_586)))
(let ((.def_514 (* (- 7203.0) .def_451)))
(let ((.def_588 (+ .def_514 .def_587)))
(let ((.def_516 (* (- 50.0) .def_332)))
(let ((.def_589 (+ .def_516 .def_588)))
(let ((.def_518 (* 490.0 b.y__AT1)))
(let ((.def_590 (+ .def_518 .def_589)))
(let ((.def_591 (<= .def_590 0.0 )))
(let ((.def_524 (* (- 5.0) .def_332)))
(let ((.def_525 (* 49.0 b.y__AT1)))
(let ((.def_527 (+ .def_525 .def_524)))
(let ((.def_528 (<= .def_527 0.0 )))
(let ((.def_592 (and .def_528 .def_591)))
(let ((.def_534 (+ .def_532 .def_531)))
(let ((.def_538 (<= 0.0 .def_534)))
(let ((.def_537 (<= 0.0 b.speed_y__AT1)))
(let ((.def_539 (and .def_537 .def_538)))
(let ((.def_535 (<= .def_534 0.0 )))
(let ((.def_530 (<= b.speed_y__AT1 0.0 )))
(let ((.def_536 (and .def_530 .def_535)))
(let ((.def_540 (or .def_536 .def_539)))
(let ((.def_593 (and .def_540 .def_592)))
(let ((.def_577 (* b.delta__AT1 .def_576)))
(let ((.def_578 (* 50.0 .def_577)))
(let ((.def_579 (+ .def_514 .def_578)))
(let ((.def_580 (+ .def_516 .def_579)))
(let ((.def_581 (+ .def_518 .def_580)))
(let ((.def_582 (<= 0.0 .def_581)))
(let ((.def_549 (<= 0.0 .def_527)))
(let ((.def_583 (and .def_549 .def_582)))
(let ((.def_584 (and .def_540 .def_583)))
(let ((.def_594 (or .def_584 .def_593)))
(let ((.def_463 (* (- (/ 49 10)) b.y__AT1)))
(let ((.def_494 (* 2.0 .def_463)))
(let ((.def_563 (* (- 1.0) .def_494)))
(let ((.def_564 (* b.delta__AT1 .def_563)))
(let ((.def_565 (* (- 50.0) .def_564)))
(let ((.def_490 (* 2.0 .def_332)))
(let ((.def_559 (* (- 1.0) .def_490)))
(let ((.def_560 (* b.delta__AT1 .def_559)))
(let ((.def_561 (* (- 25.0) .def_560)))
(let ((.def_569 (+ .def_561 .def_565)))
(let ((.def_556 (* .def_451 .def_555)))
(let ((.def_557 (* (- 50.0) .def_556)))
(let ((.def_570 (+ .def_557 .def_569)))
(let ((.def_467 (* b.y__AT1 b.speed_y__AT1)))
(let ((.def_500 (* 50.0 .def_467)))
(let ((.def_571 (+ .def_500 .def_570)))
(let ((.def_452 (* b.delta__AT1 .def_451)))
(let ((.def_498 (* 2401.0 .def_452)))
(let ((.def_572 (+ .def_498 .def_571)))
(let ((.def_502 (* 25.0 b.speed_x__AT1)))
(let ((.def_573 (+ .def_502 .def_572)))
(let ((.def_574 (<= .def_573 0.0 )))
(let ((.def_484 (* 2.0 .def_467)))
(let ((.def_485 (+ b.speed_x__AT1 .def_484)))
(let ((.def_554 (<= .def_485 0.0 )))
(let ((.def_575 (and .def_554 .def_574)))
(let ((.def_595 (and .def_575 .def_594)))
(let ((.def_511 (* 2.0 .def_487)))
(let ((.def_542 (* (- 1.0) .def_511)))
(let ((.def_543 (* b.delta__AT1 .def_542)))
(let ((.def_544 (* 50.0 .def_543)))
(let ((.def_545 (+ .def_514 .def_544)))
(let ((.def_546 (+ .def_516 .def_545)))
(let ((.def_547 (+ .def_518 .def_546)))
(let ((.def_548 (<= 0.0 .def_547)))
(let ((.def_550 (and .def_548 .def_549)))
(let ((.def_551 (and .def_540 .def_550)))
(let ((.def_512 (* b.delta__AT1 .def_511)))
(let ((.def_513 (* (- 50.0) .def_512)))
(let ((.def_520 (+ .def_514 .def_513)))
(let ((.def_521 (+ .def_516 .def_520)))
(let ((.def_522 (+ .def_518 .def_521)))
(let ((.def_523 (<= .def_522 0.0 )))
(let ((.def_529 (and .def_523 .def_528)))
(let ((.def_541 (and .def_529 .def_540)))
(let ((.def_552 (or .def_541 .def_551)))
(let ((.def_495 (* b.delta__AT1 .def_494)))
(let ((.def_496 (* 50.0 .def_495)))
(let ((.def_491 (* b.delta__AT1 .def_490)))
(let ((.def_492 (* 25.0 .def_491)))
(let ((.def_504 (+ .def_492 .def_496)))
(let ((.def_488 (* .def_451 .def_487)))
(let ((.def_489 (* 50.0 .def_488)))
(let ((.def_505 (+ .def_489 .def_504)))
(let ((.def_506 (+ .def_500 .def_505)))
(let ((.def_507 (+ .def_498 .def_506)))
(let ((.def_508 (+ .def_502 .def_507)))
(let ((.def_509 (<= 0.0 .def_508)))
(let ((.def_486 (<= 0.0 .def_485)))
(let ((.def_510 (and .def_486 .def_509)))
(let ((.def_553 (and .def_510 .def_552)))
(let ((.def_596 (or .def_553 .def_595)))
(let ((.def_468 (* b.delta__AT1 .def_467)))
(let ((.def_469 (* 200.0 .def_468)))
(let ((.def_464 (* .def_451 .def_463)))
(let ((.def_465 (* 200.0 .def_464)))
(let ((.def_475 (+ .def_465 .def_469)))
(let ((.def_460 (* .def_332 .def_451)))
(let ((.def_461 (* 100.0 .def_460)))
(let ((.def_476 (+ .def_461 .def_475)))
(let ((.def_457 (* .def_452 .def_456)))
(let ((.def_458 (* 200.0 .def_457)))
(let ((.def_477 (+ .def_458 .def_476)))
(let ((.def_453 (* b.delta__AT1 .def_452)))
(let ((.def_454 (* 2401.0 .def_453)))
(let ((.def_478 (+ .def_454 .def_477)))
(let ((.def_450 (* 100.0 .def_449)))
(let ((.def_479 (+ .def_450 .def_478)))
(let ((.def_471 (* 100.0 .def_440)))
(let ((.def_480 (+ .def_471 .def_479)))
(let ((.def_473 (* 100.0 b.x__AT1)))
(let ((.def_481 (+ .def_473 .def_480)))
(let ((.def_482 (<= 0.0 .def_481)))
(let ((.def_442 (<= 0.0 .def_441)))
(let ((.def_483 (and .def_442 .def_482)))
(let ((.def_597 (and .def_483 .def_596)))
(let ((.def_598 (and .def_67 .def_597)))
(let ((.def_443 (and .def_67 .def_442)))
(let ((.def_438 (or .def_435 .def_437)))
(let ((.def_428 (or .def_338 .def_348)))
(let ((.def_432 (or b.counter.3__AT1 .def_428)))
(let ((.def_429 (or b.counter.2__AT1 .def_428)))
(let ((.def_427 (or .def_343 .def_348)))
(let ((.def_430 (and .def_427 .def_429)))
(let ((.def_431 (or .def_357 .def_430)))
(let ((.def_433 (and .def_431 .def_432)))
(let ((.def_439 (and .def_433 .def_438)))
(let ((.def_444 (and .def_439 .def_443)))
(let ((.def_422 (<= 0.0 b.delta__AT0)))
(let ((.def_55 (not b.EVENT.0__AT0)))
(let ((.def_53 (not b.EVENT.1__AT0)))
(let ((.def_252 (and .def_53 .def_55)))
(let ((.def_254 (not .def_252)))
(let ((.def_423 (or .def_254 .def_422)))
(let ((.def_424 (or b.EVENT.1__AT0 .def_423)))
(let ((.def_297 (= b.bool_atom__AT0 b.bool_atom__AT1)))
(let ((.def_292 (= b.counter.0__AT0 b.counter.0__AT1)))
(let ((.def_289 (= b.counter.1__AT0 b.counter.1__AT1)))
(let ((.def_286 (= b.counter.2__AT0 b.counter.2__AT1)))
(let ((.def_284 (= b.counter.3__AT0 b.counter.3__AT1)))
(let ((.def_287 (and .def_284 .def_286)))
(let ((.def_290 (and .def_287 .def_289)))
(let ((.def_293 (and .def_290 .def_292)))
(let ((.def_418 (and .def_293 .def_297)))
(let ((.def_419 (or .def_254 .def_418)))
(let ((.def_420 (or b.EVENT.1__AT0 .def_419)))
(let ((.def_400 (* b.speed_y__AT0 b.delta__AT0)))
(let ((.def_401 (* 10.0 .def_400)))
(let ((.def_405 (* (- 10.0) b.y__AT1)))
(let ((.def_409 (+ .def_405 .def_401)))
(let ((.def_76 (* b.delta__AT0 b.delta__AT0)))
(let ((.def_402 (* (- 49.0) .def_76)))
(let ((.def_410 (+ .def_402 .def_409)))
(let ((.def_407 (* 10.0 b.y__AT0)))
(let ((.def_411 (+ .def_407 .def_410)))
(let ((.def_412 (= .def_411 0.0 )))
(let ((.def_395 (* (- 5.0) b.speed_y__AT1)))
(let ((.def_172 (* (- 49.0) b.delta__AT0)))
(let ((.def_396 (+ .def_172 .def_395)))
(let ((.def_173 (* 5.0 b.speed_y__AT0)))
(let ((.def_397 (+ .def_173 .def_396)))
(let ((.def_398 (= .def_397 0.0 )))
(let ((.def_391 (* (- 1.0) b.x__AT1)))
(let ((.def_73 (* b.speed_x__AT0 b.delta__AT0)))
(let ((.def_392 (+ .def_73 .def_391)))
(let ((.def_393 (+ b.x__AT0 .def_392)))
(let ((.def_394 (= .def_393 0.0 )))
(let ((.def_399 (and .def_394 .def_398)))
(let ((.def_413 (and .def_399 .def_412)))
(let ((.def_278 (= b.speed_x__AT0 b.speed_x__AT1)))
(let ((.def_414 (and .def_278 .def_413)))
(let ((.def_415 (or .def_254 .def_414)))
(let ((.def_275 (= b.y__AT0 b.y__AT1)))
(let ((.def_272 (= b.x__AT0 b.x__AT1)))
(let ((.def_385 (and .def_272 .def_275)))
(let ((.def_386 (and .def_278 .def_385)))
(let ((.def_281 (= b.speed_y__AT0 b.speed_y__AT1)))
(let ((.def_387 (and .def_281 .def_386)))
(let ((.def_382 (= b.delta__AT0 0.0 )))
(let ((.def_383 (and .def_252 .def_382)))
(let ((.def_384 (not .def_383)))
(let ((.def_388 (or .def_384 .def_387)))
(let ((.def_389 (or b.EVENT.1__AT0 .def_388)))
(let ((.def_374 (and .def_278 .def_281)))
(let ((.def_375 (and .def_293 .def_374)))
(let ((.def_376 (or b.bool_atom__AT0 .def_375)))
(let ((.def_349 (or b.counter.0__AT0 .def_348)))
(let ((.def_36 (not b.counter.0__AT0)))
(let ((.def_347 (or .def_36 b.counter.0__AT1)))
(let ((.def_350 (and .def_347 .def_349)))
(let ((.def_351 (and .def_338 .def_350)))
(let ((.def_352 (or b.counter.1__AT0 .def_351)))
(let ((.def_34 (not b.counter.1__AT0)))
(let ((.def_346 (or .def_34 b.counter.1__AT1)))
(let ((.def_353 (and .def_346 .def_352)))
(let ((.def_365 (and .def_343 .def_353)))
(let ((.def_366 (or b.counter.2__AT0 .def_365)))
(let ((.def_360 (and .def_36 .def_338)))
(let ((.def_361 (or b.counter.1__AT0 .def_360)))
(let ((.def_362 (and .def_346 .def_361)))
(let ((.def_363 (and b.counter.2__AT1 .def_362)))
(let ((.def_39 (not b.counter.2__AT0)))
(let ((.def_364 (or .def_39 .def_363)))
(let ((.def_367 (and .def_364 .def_366)))
(let ((.def_368 (and b.counter.3__AT1 .def_367)))
(let ((.def_369 (or b.counter.3__AT0 .def_368)))
(let ((.def_354 (and b.counter.2__AT1 .def_353)))
(let ((.def_355 (or b.counter.2__AT0 .def_354)))
(let ((.def_341 (or b.counter.1__AT0 b.counter.1__AT1)))
(let ((.def_339 (and b.counter.0__AT1 .def_338)))
(let ((.def_340 (or .def_34 .def_339)))
(let ((.def_342 (and .def_340 .def_341)))
(let ((.def_344 (and .def_342 .def_343)))
(let ((.def_345 (or .def_39 .def_344)))
(let ((.def_356 (and .def_345 .def_355)))
(let ((.def_358 (and .def_356 .def_357)))
(let ((.def_42 (not b.counter.3__AT0)))
(let ((.def_359 (or .def_42 .def_358)))
(let ((.def_370 (and .def_359 .def_369)))
(let ((.def_327 (* b.speed_x__AT0 b.speed_x__AT0)))
(let ((.def_90 (* b.speed_y__AT0 b.speed_y__AT0)))
(let ((.def_328 (+ .def_90 .def_327)))
(let ((.def_329 (* .def_326 .def_328)))
(let ((.def_330 (* (- 1.0) .def_329)))
(let ((.def_334 (+ .def_330 .def_332)))
(let ((.def_335 (+ .def_325 .def_334)))
(let ((.def_336 (= .def_335 0.0 )))
(let ((.def_303 (* 2.0 b.y__AT0)))
(let ((.def_317 (* .def_303 .def_314)))
(let ((.def_318 (* b.speed_y__AT0 .def_317)))
(let ((.def_315 (* b.speed_x__AT0 .def_314)))
(let ((.def_321 (+ .def_315 .def_318)))
(let ((.def_322 (+ .def_312 .def_321)))
(let ((.def_323 (+ b.speed_x__AT1 .def_322)))
(let ((.def_324 (= .def_323 0.0 )))
(let ((.def_337 (and .def_324 .def_336)))
(let ((.def_371 (and .def_337 .def_370)))
(let ((.def_310 (not b.bool_atom__AT0)))
(let ((.def_372 (or .def_310 .def_371)))
(let ((.def_304 (* b.speed_y__AT0 .def_303)))
(let ((.def_305 (+ b.speed_x__AT0 .def_304)))
(let ((.def_306 (<= 0.0 .def_305)))
(let ((.def_307 (not .def_306)))
(let ((.def_58 (* b.y__AT0 b.y__AT0)))
(let ((.def_59 (+ b.x__AT0 .def_58)))
(let ((.def_302 (= .def_59 0.0 )))
(let ((.def_308 (and .def_302 .def_307)))
(let ((.def_309 (= b.bool_atom__AT0 .def_308)))
(let ((.def_373 (and .def_309 .def_372)))
(let ((.def_377 (and .def_373 .def_376)))
(let ((.def_378 (and .def_272 .def_377)))
(let ((.def_379 (and .def_275 .def_378)))
(let ((.def_380 (or .def_252 .def_379)))
(let ((.def_381 (or b.EVENT.1__AT0 .def_380)))
(let ((.def_390 (and .def_381 .def_389)))
(let ((.def_416 (and .def_390 .def_415)))
(let ((.def_259 (= b.time__AT0 b.time__AT1)))
(let ((.def_273 (and .def_259 .def_272)))
(let ((.def_276 (and .def_273 .def_275)))
(let ((.def_279 (and .def_276 .def_278)))
(let ((.def_282 (and .def_279 .def_281)))
(let ((.def_294 (and .def_282 .def_293)))
(let ((.def_298 (and .def_294 .def_297)))
(let ((.def_299 (or .def_53 .def_298)))
(let ((.def_262 (* (- 1.0) b.time__AT1)))
(let ((.def_265 (+ b.delta__AT0 .def_262)))
(let ((.def_266 (+ b.time__AT0 .def_265)))
(let ((.def_267 (= .def_266 0.0 )))
(let ((.def_268 (or .def_254 .def_267)))
(let ((.def_269 (or b.EVENT.1__AT0 .def_268)))
(let ((.def_260 (or .def_252 .def_259)))
(let ((.def_261 (or b.EVENT.1__AT0 .def_260)))
(let ((.def_270 (and .def_261 .def_269)))
(let ((.def_300 (and .def_270 .def_299)))
(let ((.def_256 (= .def_254 b.event_is_timed__AT1)))
(let ((.def_253 (= b.event_is_timed__AT0 .def_252)))
(let ((.def_257 (and .def_253 .def_256)))
(let ((.def_301 (and .def_257 .def_300)))
(let ((.def_417 (and .def_301 .def_416)))
(let ((.def_421 (and .def_417 .def_420)))
(let ((.def_425 (and .def_421 .def_424)))
(let ((.def_426 (and .def_53 .def_425)))
(let ((.def_445 (and .def_426 .def_444)))
(let ((.def_37 (and .def_34 .def_36)))
(let ((.def_40 (and .def_37 .def_39)))
(let ((.def_446 (and .def_40 .def_445)))
(let ((.def_85 (* (- (/ 49 10)) b.speed_y__AT0)))
(let ((.def_119 (* 3.0 .def_85)))
(let ((.def_200 (* (- 1.0) .def_119)))
(let ((.def_222 (* 2.0 .def_200)))
(let ((.def_234 (* (- 1.0) .def_222)))
(let ((.def_235 (* b.delta__AT0 .def_234)))
(let ((.def_236 (* (- 50.0) .def_235)))
(let ((.def_153 (* (- 50.0) .def_90)))
(let ((.def_240 (+ .def_153 .def_236)))
(let ((.def_151 (* (- 7203.0) .def_76)))
(let ((.def_241 (+ .def_151 .def_240)))
(let ((.def_156 (* 490.0 b.y__AT0)))
(let ((.def_242 (+ .def_156 .def_241)))
(let ((.def_243 (<= .def_242 0.0 )))
(let ((.def_164 (* (- 5.0) .def_90)))
(let ((.def_165 (* 49.0 b.y__AT0)))
(let ((.def_167 (+ .def_165 .def_164)))
(let ((.def_168 (<= .def_167 0.0 )))
(let ((.def_244 (and .def_168 .def_243)))
(let ((.def_175 (+ .def_173 .def_172)))
(let ((.def_179 (<= 0.0 .def_175)))
(let ((.def_178 (<= 0.0 b.speed_y__AT0)))
(let ((.def_180 (and .def_178 .def_179)))
(let ((.def_176 (<= .def_175 0.0 )))
(let ((.def_170 (<= b.speed_y__AT0 0.0 )))
(let ((.def_177 (and .def_170 .def_176)))
(let ((.def_181 (or .def_177 .def_180)))
(let ((.def_245 (and .def_181 .def_244)))
(let ((.def_223 (* b.delta__AT0 .def_222)))
(let ((.def_224 (* 50.0 .def_223)))
(let ((.def_228 (+ .def_153 .def_224)))
(let ((.def_229 (+ .def_151 .def_228)))
(let ((.def_230 (+ .def_156 .def_229)))
(let ((.def_231 (<= 0.0 .def_230)))
(let ((.def_194 (<= 0.0 .def_167)))
(let ((.def_232 (and .def_194 .def_231)))
(let ((.def_233 (and .def_181 .def_232)))
(let ((.def_246 (or .def_233 .def_245)))
(let ((.def_94 (* (- (/ 49 10)) b.y__AT0)))
(let ((.def_128 (* 2.0 .def_94)))
(let ((.def_209 (* (- 1.0) .def_128)))
(let ((.def_210 (* b.delta__AT0 .def_209)))
(let ((.def_211 (* (- 50.0) .def_210)))
(let ((.def_123 (* 2.0 .def_90)))
(let ((.def_204 (* (- 1.0) .def_123)))
(let ((.def_205 (* b.delta__AT0 .def_204)))
(let ((.def_207 (* (- 25.0) .def_205)))
(let ((.def_215 (+ .def_207 .def_211)))
(let ((.def_201 (* .def_76 .def_200)))
(let ((.def_202 (* (- 50.0) .def_201)))
(let ((.def_216 (+ .def_202 .def_215)))
(let ((.def_98 (* b.y__AT0 b.speed_y__AT0)))
(let ((.def_134 (* 50.0 .def_98)))
(let ((.def_217 (+ .def_134 .def_216)))
(let ((.def_77 (* b.delta__AT0 .def_76)))
(let ((.def_132 (* 2401.0 .def_77)))
(let ((.def_218 (+ .def_132 .def_217)))
(let ((.def_136 (* 25.0 b.speed_x__AT0)))
(let ((.def_219 (+ .def_136 .def_218)))
(let ((.def_220 (<= .def_219 0.0 )))
(let ((.def_115 (* 2.0 .def_98)))
(let ((.def_116 (+ b.speed_x__AT0 .def_115)))
(let ((.def_199 (<= .def_116 0.0 )))
(let ((.def_221 (and .def_199 .def_220)))
(let ((.def_247 (and .def_221 .def_246)))
(let ((.def_145 (* 2.0 .def_119)))
(let ((.def_184 (* (- 1.0) .def_145)))
(let ((.def_185 (* b.delta__AT0 .def_184)))
(let ((.def_186 (* 50.0 .def_185)))
(let ((.def_190 (+ .def_153 .def_186)))
(let ((.def_191 (+ .def_151 .def_190)))
(let ((.def_192 (+ .def_156 .def_191)))
(let ((.def_193 (<= 0.0 .def_192)))
(let ((.def_195 (and .def_193 .def_194)))
(let ((.def_196 (and .def_181 .def_195)))
(let ((.def_146 (* b.delta__AT0 .def_145)))
(let ((.def_148 (* (- 50.0) .def_146)))
(let ((.def_158 (+ .def_153 .def_148)))
(let ((.def_159 (+ .def_151 .def_158)))
(let ((.def_160 (+ .def_156 .def_159)))
(let ((.def_161 (<= .def_160 0.0 )))
(let ((.def_169 (and .def_161 .def_168)))
(let ((.def_182 (and .def_169 .def_181)))
(let ((.def_197 (or .def_182 .def_196)))
(let ((.def_129 (* b.delta__AT0 .def_128)))
(let ((.def_130 (* 50.0 .def_129)))
(let ((.def_124 (* b.delta__AT0 .def_123)))
(let ((.def_126 (* 25.0 .def_124)))
(let ((.def_138 (+ .def_126 .def_130)))
(let ((.def_120 (* .def_76 .def_119)))
(let ((.def_122 (* 50.0 .def_120)))
(let ((.def_139 (+ .def_122 .def_138)))
(let ((.def_140 (+ .def_134 .def_139)))
(let ((.def_141 (+ .def_132 .def_140)))
(let ((.def_142 (+ .def_136 .def_141)))
(let ((.def_143 (<= 0.0 .def_142)))
(let ((.def_117 (<= 0.0 .def_116)))
(let ((.def_144 (and .def_117 .def_143)))
(let ((.def_198 (and .def_144 .def_197)))
(let ((.def_248 (or .def_198 .def_247)))
(let ((.def_99 (* b.delta__AT0 .def_98)))
(let ((.def_100 (* 200.0 .def_99)))
(let ((.def_95 (* .def_76 .def_94)))
(let ((.def_96 (* 200.0 .def_95)))
(let ((.def_106 (+ .def_96 .def_100)))
(let ((.def_91 (* .def_76 .def_90)))
(let ((.def_92 (* 100.0 .def_91)))
(let ((.def_107 (+ .def_92 .def_106)))
(let ((.def_86 (* .def_77 .def_85)))
(let ((.def_88 (* 200.0 .def_86)))
(let ((.def_108 (+ .def_88 .def_107)))
(let ((.def_78 (* b.delta__AT0 .def_77)))
(let ((.def_80 (* 2401.0 .def_78)))
(let ((.def_109 (+ .def_80 .def_108)))
(let ((.def_75 (* 100.0 .def_73)))
(let ((.def_110 (+ .def_75 .def_109)))
(let ((.def_102 (* 100.0 .def_58)))
(let ((.def_111 (+ .def_102 .def_110)))
(let ((.def_104 (* 100.0 b.x__AT0)))
(let ((.def_112 (+ .def_104 .def_111)))
(let ((.def_113 (<= 0.0 .def_112)))
(let ((.def_60 (<= 0.0 .def_59)))
(let ((.def_114 (and .def_60 .def_113)))
(let ((.def_249 (and .def_114 .def_248)))
(let ((.def_250 (and .def_67 .def_249)))
(let ((.def_68 (and .def_60 .def_67)))
(let ((.def_56 (or .def_53 .def_55)))
(let ((.def_46 (or .def_34 .def_36)))
(let ((.def_50 (or b.counter.3__AT0 .def_46)))
(let ((.def_47 (or b.counter.2__AT0 .def_46)))
(let ((.def_45 (or .def_36 .def_39)))
(let ((.def_48 (and .def_45 .def_47)))
(let ((.def_49 (or .def_42 .def_48)))
(let ((.def_51 (and .def_49 .def_50)))
(let ((.def_57 (and .def_51 .def_56)))
(let ((.def_69 (and .def_57 .def_68)))
(let ((.def_43 (and .def_40 .def_42)))
(let ((.def_31 (= b.speed_y__AT0 1.0 )))
(let ((.def_28 (= b.speed_x__AT0 1.0 )))
(let ((.def_24 (= b.y__AT0 10.0 )))
(let ((.def_20 (= b.x__AT0 (- 9.0) )))
(let ((.def_14 (= b.time__AT0 0.0 )))
(let ((.def_16 (and .def_14 b.event_is_timed__AT0)))
(let ((.def_21 (and .def_16 .def_20)))
(let ((.def_25 (and .def_21 .def_24)))
(let ((.def_29 (and .def_25 .def_28)))
(let ((.def_32 (and .def_29 .def_31)))
(let ((.def_44 (and .def_32 .def_43)))
(let ((.def_70 (and .def_44 .def_69)))
(let ((.def_7 (and .def_4 .def_6)))
(let ((.def_10 (and .def_7 .def_9)))
(let ((.def_11 (not .def_10)))
(let ((.def_71 (and .def_11 .def_70)))
(let ((.def_251 (and .def_71 .def_250)))
(let ((.def_447 (and .def_251 .def_446)))
(let ((.def_599 (and .def_447 .def_598)))
(let ((.def_783 (and .def_599 .def_782)))
(let ((.def_935 (and .def_783 .def_934)))
.def_935)))))))))))))))))))))))))))))))))))))))))))))))))))))))))))))))))))))))))))))))))))))))))))))))))))))))))))))))))))))))))))))))))))))))))))))))))))))))))))))))))))))))))))))))))))))))))))))))))))))))))))))))))))))))))))))))))))))))))))))))))))))))))))))))))))))))))))))))))))))))))))))))))))))))))))))))))))))))))))))))))))))))))))))))))))))))))))))))))))))))))))))))))))))))))))))))))))))))))))))))))))))))))))))))))))))))))))))))))))))))))))))))))))))))))))))))))))))))))))))))))))))))))))))))))))))))))))))))))))))))))))))))))))))))))))))))))))))))))))))))))))))))))))))))))))))))))))))))))))))))))))))))))))))))))))))))))))))))))))))))))))))))))))))))))))))))))))))))))))))))))))))))))))))))))))))))))))))))))))))))))))))))))))))))))))))))))))))))))))))))))))))))))
(check-sat)
(exit)
